reading elements ............
reading adjacency matrix ............
finish reading adjacency matrix ............
CHARACTERIZATION
solver.cpp
creating characterizatoin based formulation...
Version identifier: 20.1.0.0 | 2020-11-10 | 9bedb6d68
CPXPARAM_Threads                                 4
CPXPARAM_MIP_Display                             4
CPXPARAM_MIP_Strategy_File                       3
CPXPARAM_Emphasis_MIP                            1
CPXPARAM_WorkMem                                 8000
CPXPARAM_MIP_Limits_TreeMemory                   8000
Presolve has eliminated 1261943 rows and 259416 columns...
Presolve has improved bounds 60 times...
Presolve has eliminated 1267403 rows and 259416 columns...
Presolve has improved bounds 60 times...
Aggregator has done 126 substitutions...
Aggregator has done 126 substitutions...
Aggregator has done 126 substitutions...
Tried aggregator 2 times.
Aggregator has done 126 substitutions...
MIP Presolve eliminated 16003461 rows and 372710 columns.
MIP Presolve modified 482479 coefficients.
Aggregator did 126 substitutions.
Reduced MIP has 16479325 rows, 7621763 columns, and 84924015 nonzeros.
Reduced MIP has 7621763 binaries, 0 generals, 0 SOSs, and 0 indicators.
Presolve time = 736.39 sec. (703560.02 ticks)
